Version identifier: 20.1.0.0 | 2020-11-10 | 9bedb6d68
Tried aggregator 2 times.
MIP Presolve eliminated 982 rows and 615 columns.
MIP Presolve modified 1748 coefficients.
Aggregator did 104 substitutions.
Reduced MIP has 720 rows, 588 columns, and 2303 nonzeros.
Reduced MIP has 158 binaries, 430 generals, 0 SOSs, and 0 indicators.
Presolve time = 0.01 sec. (3.91 ticks)
Found incumbent of value 84.000000 after 0.02 sec. (6.73 ticks)
Probing fixed 20 vars, tightened 129 bounds.
Probing time = 0.00 sec. (0.58 ticks)
Tried aggregator 1 time.
Detecting symmetries...
MIP Presolve eliminated 320 rows and 20 columns.
MIP Presolve modified 35 coefficients.
Reduced MIP has 400 rows, 568 columns, and 1343 nonzeros.
Reduced MIP has 195 binaries, 373 generals, 0 SOSs, and 0 indicators.
Presolve time = 0.00 sec. (1.49 ticks)
Probing time = 0.00 sec. (0.14 ticks)
Clique table members: 61.
MIP emphasis: balance optimality and feasibility.
MIP search method: dynamic search.
Parallel mode: deterministic, using up to 24 threads.
Root relaxation solution time = 0.00 sec. (1.05 ticks)

        Nodes                                         Cuts/
   Node  Left     Objective  IInf  Best Integer    Best Bound    ItCnt     Gap

*     0+    0                           84.0000        0.0000           100.00%
      0     0        0.0000    30       84.0000        0.0000      135  100.00%
      0     0        4.2727   112       84.0000     Cuts: 110      310   94.91%
      0     0        5.5882    85       84.0000      Cuts: 92      366   93.35%
      0     0        5.6093   115       84.0000      Cuts: 43      426   93.32%
      0     0        5.6093   129       84.0000      Cuts: 32      460   93.32%
      0     0        5.6093   122       84.0000      Cuts: 15      502   93.32%
      0     0        5.6094   102       84.0000      Cuts: 50      579   93.32%
      0     0        5.6094   148       84.0000      Cuts: 23      617   93.32%
*     0+    0                           21.0000        5.6094            73.29%
*     0+    0                           11.0000        5.6094            49.01%
      0     0        cutoff             11.0000       11.0000      617    0.00%
Elapsed time = 0.24 sec. (56.32 ticks, tree = 0.01 MB, solutions = 3)

Cover cuts applied:  3
Implied bound cuts applied:  31
Flow cuts applied:  6
Mixed integer rounding cuts applied:  11
Zero-half cuts applied:  33
Gomory fractional cuts applied:  14

Root node processing (before b&c):
  Real time             =    0.24 sec. (56.38 ticks)
Parallel b&c, 24 threads:
  Real time             =    0.00 sec. (0.00 ticks)
  Sync time (average)   =    0.00 sec.
  Wait time (average)   =    0.00 sec.
                          ------------
Total (root+branch&cut) =    0.24 sec. (56.38 ticks)

Solution status = Optimal
Solution LB = 11
Solution UB = 11
Runtime = 0.244542 seconds
	Command being timed: "/home/min/git_repos/CS598MEBProject/CNT-ILP/build/cnt -s 2 ./output/k6_n20/simC_c1_k6_n20_u3_s1_del02.input-right.cnp"
	User time (seconds): 2.88
	System time (seconds): 0.03
	Percent of CPU this job got: 1126%
	Elapsed (wall clock) time (h:mm:ss or m:ss): 0:00.25
	Average shared text size (kbytes): 0
	Average unshared data size (kbytes): 0
	Average stack size (kbytes): 0
	Average total size (kbytes): 0
	Maximum resident set size (kbytes): 60852
	Average resident set size (kbytes): 0
	Major (requiring I/O) page faults: 0
	Minor (reclaiming a frame) page faults: 12559
	Voluntary context switches: 2836
	Involuntary context switches: 594
	Swaps: 0
	File system inputs: 0
	File system outputs: 16
	Socket messages sent: 0
	Socket messages received: 0
	Signals delivered: 0
	Page size (bytes): 4096
	Exit status: 0
